c20

VEHICLE
NUMBER                              tmax
1                                   959

0      40      50      0      0      0      0      0      0      0
1      45      68      10      10      1      1      1      1000      1200
2      45      70      10      10      1      1      1      0720      0900
3      42      66      10      25      1      1      1      0720      0900
4      40      69      10      50      1      1      1      1800      2000
5      40      69      10      20      1      1      1      0900      1000
6      45      50      10      25      1      1      1      0720      0900


 



